
Log started (V20.1.0.0) Tue Aug  9 09:01:14 2022


Problem 'pp.lp' read.
Read time = 0.02 sec. (0.00 ticks)
Version identifier: 20.1.0.0 | 2020-11-10 | 9bedb6d68
Tried aggregator 1 time.
No LP presolve or aggregator reductions.
Presolve time = 0.00 sec. (0.00 ticks)
Initializing dual steep norms . . .

Iteration log . . .
Iteration:     1   Dual infeasibility =             1.125000

Dual simplex - Optimal:  Objective =  1.4000000000e+01
Solution time =    0.02 sec.  Iterations = 2 (2)
Deterministic time = 0.00 ticks  (0.31 ticks/sec)

